N = 38;
MinK = 5;
Capacity = 100;

X = array1d(0..38, [9, 43, 79, 93, 13, 67, 31, 81, 27, 27, 69, 31, 27, 15, 7, 53, 75, 47, 25, 1, 45, 1, 93, 41, 75, 3, 51, 57, 21, 55, 3, 37, 73, 19, 75, 93, 41, 97, 45]);
Y = array1d(0..38, [35, 19, 35, 7, 35, 13, 77, 7, 49, 35, 23, 51, 27, 83, 35, 25, 13, 49, 33, 23, 11, 47, 15, 9, 55, 1, 67, 91, 97, 13, 71, 19, 21, 19, 73, 49, 87, 73, 29]);

Demands = [5, 24, 3, 20, 26, 23, 15, 3, 20, 16, 9, 21, 3, 24, 14, 6, 6, 13, 5, 3, 3, 20, 16, 22, 10, 12, 20, 24, 6, 1, 2, 13, 7, 6, 24, 19, 4, 7];
